WARNING: for repeatability, setting FPU to use double precision
============================[ Problem Statistics ]=============================
|                                                                             |
|  Number of variables:       6472782                                         |
|  Number of clauses:        25795161                                         |
|  Parse time:                   5.72 s                                       |
|                                                                             |
c ============================[ Search Statistics ]==============================
c | Conflicts |          ORIGINAL         |          LEARNT          | Progress |
c |           |    Vars  Clauses Literals |    Limit  Clauses Lit/Cl |          |
c ===============================================================================
We had 4438 decisions of which only 0 were on extended
We had 2525496 decisions of which only 0 were on extended
c Switched to VSIDS.
c Switched to LRB.
c Switched to VSIDS.
c Switched to LRB.
c Switched to VSIDS.
c Switched to LRB.
c Switched to VSIDS.
c Switched to LRB.
c Switched to VSIDS.
c Switched to LRB.
c Switched to VSIDS.
c Switched to LRB.
c Switched to VSIDS.
c Switched to LRB.
We had 3605584 decisions of which only 0.00465944 were on extended
c Switched to VSIDS.
c Switched to LRB.
c Switched to VSIDS.
c Switched to LRB.
c Switched to VSIDS.
c Switched to LRB.
We had 4215565 decisions of which only 0.0734658 were on extended
c Switched to VSIDS.
c Switched to LRB.
c Switched to VSIDS.
c Switched to LRB.
We had 6502828 decisions of which only 0.2836 were on extended
c Switched to VSIDS.
c Switched to LRB.
c ===============================================================================
restarts                  : 272
conflicts                 : 42676          (12 /sec)
decisions                 : 7337764        (0.00 % random) (2055 /sec)
propagations              : 6505903735     (1821817 /sec)
conflict literals         : 20250899       (24.08 % deleted)

conflicts w/ DIP found    : 33982          (79.63 % of conflicts)
conflicts w/ dangerous DIP: 0              (0.00 % of conflicts)
conflicts w/ DIP-learning : 1845           (4.32 % of conflicts)
decisions on ext vars     : 22834          (0.31 % of decisions)
total ext vars            : 317         
tried delete ext vars     : 185         
deleted ext vars          : 181         
max ext vars              : 176         

Memory used               : 3553.00 MB
CPU time                  : 3571.11 s
DIP computation time      : 1.10348 s (0.03 % of total time)
ER_sel time               : 0.091179 s
ER_add time               : 0.004301 s
ER_delC time              : 0 s
ER_delV time              : 0.041362 s
ER_sub time               : 0.257609 s
ER_stat time              : 0 s

INDETERMINATE
